120 150

52
49
52
51
47
60
60
49
55
44
58
50
60
60
55
54
54
54
54
48
48
55
50
47
46
42
60
58
51
51
55
51
52
50
55
45
47
60
48
49
55
60
60
49
60
41
42
45
46
55
47
56
43
48
49
45
44
42
58
43
49
51
59
59
46
45
51
51
41
50
51
51
57
60
49
41
54
48
55
55
60
40
51
42
48
45
57
60
40
54
48
60
57
52
55
50
56
49
53
42
41
45
57
45
57
44
59
49
42
49
48
59
55
49
48
43
47
40
46
55